50
    78    97     7    38   100    97    36    93    83     4    97    93    80    85    78    99    36    22     3    40    84    13    41     7    50    71   100    61    49    24    28    25    89    19    14    88    65    14    88     8    65    87    20     4    68    28    22    65    43    44
     4     3     8     6     3     9    10     5     3     8     5     5     6     4     7     5     4     5     2     7     6     4     8     3     7     6     7     2     1     5     9     7     7     7     1     5     3     2    10     9     2     8     4     6     7     3     5     6     6     5
   909  1368   808  1652   996  1042  1265    12  1872   952  1088  2302   636  1775     0  1894  1412  1739  1843     0   853   847  1072  1006  1477  1126  1729  1992     0   252  1123  1063     0     0  1143     0   789  1241  2381  1718   463  1450  2220   754  1424  1668  2216  1222   714    83
